20
87.63
0 19 2.39 4.15
1 18 2.07 4.01
2 17 2.63 4.34
3 16 1.92 3.95
4 15 2.22 4.41
5 14 1.44 4.55
6 13 0.69 4.26
7 12 0.66 4.68
8 11 0.92 5.33
9 10 0.26 5.1
10 9 2.82 3.39
11 8 3.95 3.44
12 7 3.92 3.4
13 6 6.02 3.04
14 5 3.06 3.12
15 4 2.77 3.6
16 3 5.7 3.48
17 2 3.58 3.2
18 1 9.46 4.64
